Data path: /scratch/opt/lxu/CFLG/benchmarks/Kgroup_A
Instance: K100.6.red
Result path: /scratch/opt/lxu/CFLG/results/Kgroup_A
Solver: Gurobi
Time limit: 7200
Formulation: EF
Cover: Large
julia --project=. src/main.jl /scratch/opt/lxu/CFLG/benchmarks/Kgroup_A K100.6.red /scratch/opt/lxu/CFLG/results/Kgroup_A Gurobi 7200 EF Large
The latest version of Julia in the `release` channel is 1.11.5+0.x64.linux.gnu. You currently have `1.11.4+0.x64.linux.gnu` installed. Run:

  juliaup update

in your terminal shell to install Julia 1.11.5+0.x64.linux.gnu and update the `release` channel to that version.
/scratch/opt/lxu/CFLG/benchmarks/Kgroup_A Gurobi 7200.0 /scratch/opt/lxu/CFLG/results/Kgroup_A K100.6.red EF Large
/scratch/opt/lxu/CFLG/benchmarks/Kgroup_A/K100.6.red

 read graph
data loaded


after absorb:22 22

max_piece:2
problem_graph/original graph: node: 28/22 edge: 70/64 dlt: 0.7044959720114354 break_avg_len: 0.3220553014909418 break_max_len: 0.6188719867292556elapsed CPU time: 0.026583 seconds
Set parameter TokenServer to value "solice01.zib.de"
Set parameter Threads to value 1
Set parameter OutputFlag to value 1
Set parameter MIPGap to value 0.0001
Set parameter MIPGapAbs to value 0.999998
Set parameter TimeLimit to value 7199.973417

 model loaded

Gurobi Optimizer version 12.0.1 build v12.0.1rc0 (linux64 - "Debian GNU/Linux 12 (bookworm)")

CPU model: Intel(R) Xeon(R) Gold 5222 CPU @ 3.80GHz, instruction set [SSE2|AVX|AVX2|AVX512]
Thread count: 8 physical cores, 16 logical processors, using up to 1 threads

Non-default parameters:
TimeLimit  7199.973417
MIPGapAbs  0.999998
Threads  1

Optimize a model with 1030050 rows, 350000 columns and 2742110 nonzeros
Model fingerprint: 0x255cbd56
Variable types: 5950 continuous, 344050 integer (344050 binary)
Coefficient statistics:
  Matrix range     [6e-02, 8e+00]
  Objective range  [1e+00, 1e+00]
  Bounds range     [6e-02, 6e-01]
  RHS range        [9e-05, 8e+00]
Presolve removed 329994 rows and 87851 columns (presolve time = 5s)...
Presolve removed 452118 rows and 88482 columns (presolve time = 10s)...
Presolve removed 452118 rows and 139815 columns (presolve time = 15s)...
Presolve removed 452118 rows and 139815 columns (presolve time = 20s)...
Presolve removed 452118 rows and 139815 columns (presolve time = 25s)...
Presolve removed 452118 rows and 139815 columns (presolve time = 30s)...
Presolve removed 452118 rows and 139815 columns (presolve time = 35s)...
Presolve removed 452118 rows and 139815 columns (presolve time = 40s)...
Presolve removed 452118 rows and 139815 columns (presolve time = 45s)...
Presolve removed 452118 rows and 139815 columns (presolve time = 50s)...
Presolve removed 452118 rows and 152490 columns (presolve time = 58s)...
Presolve removed 611300 rows and 162566 columns (presolve time = 60s)...
Presolve removed 613205 rows and 163409 columns
Presolve time: 61.72s
Presolved: 416845 rows, 186591 columns, 1118211 nonzeros
Variable types: 769 continuous, 185822 integer (185822 binary)
Found heuristic solution: objective 69.0000000
Found heuristic solution: objective 68.0000000

Root simplex log...

Iteration    Objective       Primal Inf.    Dual Inf.      Time
       0    0.0000000e+00   2.449046e+02   0.000000e+00     66s
   19327    5.2716463e-02   1.361582e+02   0.000000e+00     70s
   32103    2.5656676e-01   1.223836e+02   0.000000e+00     76s
   37739    2.6713878e-01   9.156989e+01   0.000000e+00     80s
   41443    2.7231363e-01   9.854274e+01   0.000000e+00     85s
   46851    2.7719332e-01   9.082907e+01   0.000000e+00     90s
   52175    2.7794603e-01   6.042431e+01   0.000000e+00     95s
   58334    2.7795044e-01   5.375443e+01   0.000000e+00    100s
   62390    2.7797023e-01   4.800557e+01   0.000000e+00    105s
   66446    2.7798661e-01   4.283422e+01   0.000000e+00    110s
   69826    2.7799838e-01   3.944279e+01   0.000000e+00    115s
   72444    2.7800489e-01   3.918144e+01   0.000000e+00    120s
   76162    2.7802026e-01   1.873996e+03   0.000000e+00    125s
   79474    2.7803747e-01   2.925378e+01   0.000000e+00    130s
   83192    2.7805939e-01   2.922762e+01   0.000000e+00    135s
   87140    2.7807633e-01   3.241138e+02   0.000000e+00    140s
   90166    2.7808461e-01   2.598463e+01   0.000000e+00    145s
   92532    2.7809315e-01   2.895678e+01   0.000000e+00    150s
   98449    2.7811072e-01   2.123663e+01   0.000000e+00    155s
  105296    2.7812997e-01   1.170490e+01   0.000000e+00    160s
  110028    2.7813685e-01   1.906743e+01   0.000000e+00    165s
  113746    2.7815646e-01   1.779822e+02   0.000000e+00    170s
  117126    2.7815804e-01   1.067325e+02   0.000000e+00    175s
  119474    2.7816384e-01   1.017874e+01   0.000000e+00    180s
  122854    2.7816773e-01   1.052950e+02   0.000000e+00    185s
  127586    2.7817048e-01   2.817682e-01   0.000000e+00    190s
  129060    2.7786078e-01   0.000000e+00   3.938087e-04    195s
  129144    2.7786078e-01   0.000000e+00   0.000000e+00    196s
  129144    2.7786078e-01   0.000000e+00   0.000000e+00    196s

Root relaxation: objective 2.778608e-01, 129144 iterations, 131.07 seconds (139.48 work units)
Total elapsed time = 231.87s (DegenMoves)
Total elapsed time = 238.79s (DegenMoves)
Total elapsed time = 246.45s (DegenMoves)
Total elapsed time = 251.38s (DegenMoves)

    Nodes    |    Current Node    |     Objective Bounds      |     Work
 Expl Unexpl |  Obj  Depth IntInf | Incumbent    BestBd   Gap | It/Node Time

     0     0    0.27786    0 12346   68.00000    0.27786   100%     -  416s
     0     0    0.27869    0 20028   68.00000    0.27869   100%     -  461s
H    0     0                      15.0000000    0.27869  98.1%     -  461s
H    0     0                      11.0000000    0.27869  97.5%     -  465s
H    0     0                       6.0000000    0.27869  95.4%     -  465s
H    0     0                       5.0000000    0.27869  94.4%     -  473s
     0     0    0.38149    0 12788    5.00000    0.38149  92.4%     -  656s
     0     0    2.72727    0  436    5.00000    2.72727  45.5%     -  686s
     0     0    2.72727    0  437    5.00000    2.72727  45.5%     -  686s
     0     0    2.72727    0  438    5.00000    2.72727  45.5%     -  686s
     0     0    2.73333    0  563    5.00000    2.73333  45.3%     -  688s
     0     0    2.76190    0  923    5.00000    2.76190  44.8%     -  691s
     0     0    2.76923    0 1134    5.00000    2.76923  44.6%     -  695s
     0     0    2.76923    0 1001    5.00000    2.76923  44.6%     -  698s
     0     0    2.76923    0 1004    5.00000    2.76923  44.6%     -  698s
     0     0    2.76923    0  960    5.00000    2.76923  44.6%     -  699s
     0     0    2.76923    0  534    5.00000    2.76923  44.6%     -  700s
     0     0    2.79870    0  947    5.00000    2.79870  44.0%     -  708s
     0     0    2.80000    0  403    5.00000    2.80000  44.0%     -  709s
     0     0    2.80000    0  396    5.00000    2.80000  44.0%     -  709s
     0     0    2.80000    0  396    5.00000    2.80000  44.0%     -  709s
     0     0    2.80000    0  396    5.00000    2.80000  44.0%     -  709s
     0     0    2.80000    0  396    5.00000    2.80000  44.0%     -  709s
H    0     0                       4.0000000    2.87500  28.1%     -  711s
     0     0    3.00000    0 1074    4.00000    3.00000  25.0%     -  713s
     0     0     cutoff    0         4.00000    4.00000  0.00%     -  714s

Cutting planes:
  Learned: 53
  Gomory: 18
  Cover: 101
  Implied bound: 22
  Clique: 111
  MIR: 138
  Flow cover: 18
  GUB cover: 2
  Zero half: 10
  RLT: 20
  Relax-and-lift: 260
  BQP: 3
  PSD: 1

Explored 1 nodes (750242 simplex iterations) in 714.78 seconds (679.70 work units)
Thread count was 1 (of 16 available processors)

Solution count 10: 4 5 5 ... 69

Optimal solution found (tolerance 1.00e-04)
Best objective 4.000000000000e+00, best bound 4.000000000000e+00, gap 0.0000%

User-callback calls 83641, time in user-callback 0.25 sec
Stat(MathOptInterface.OPTIMAL, 4.0, 4.0, 0.0, 0.0, 0.026583, 714.7938377857208, 1, Main.CFLG.EF, "", #undef)
